\ Model district
\ LP format - for model browsing. Use MPS format to capture full model detail.
Minimize
  31 y_0_1_0 + 31 y_0_1_1 + 48 y_0_2_0 + 48 y_0_2_1 + 22 y_0_3_0
   + 22 y_0_3_1 + 53 y_0_4_0 + 53 y_0_4_1 + 31 y_1_0_0 + 31 y_1_0_1
   + 23 y_1_2_0 + 23 y_1_2_1 + 25 y_1_3_0 + 25 y_1_3_1 + 44 y_1_4_0
   + 44 y_1_4_1 + 48 y_2_0_0 + 48 y_2_0_1 + 23 y_2_1_0 + 23 y_2_1_1
   + 31 y_2_3_0 + 31 y_2_3_1 + 31 y_2_4_0 + 31 y_2_4_1 + 22 y_3_0_0
   + 22 y_3_0_1 + 25 y_3_1_0 + 25 y_3_1_1 + 31 y_3_2_0 + 31 y_3_2_1
   + 31 y_3_4_0 + 31 y_3_4_1 + 53 y_4_0_0 + 53 y_4_0_1 + 44 y_4_1_0
   + 44 y_4_1_1 + 31 y_4_2_0 + 31 y_4_2_1 + 31 y_4_3_0 + 31 y_4_3_1 + slack
   + slack
Subject To
 R0: 2 x_0_0 - 2 y_0_0_0 <= 0
 R1: 2 x_0_1 - 2 y_0_0_1 <= 0
 R2: x_0_0 + x_1_0 - 2 y_0_1_0 <= 0
 R3: x_0_1 + x_1_1 - 2 y_0_1_1 <= 0
 R4: x_0_0 + x_2_0 - 2 y_0_2_0 <= 0
 R5: x_0_1 + x_2_1 - 2 y_0_2_1 <= 0
 R6: x_0_0 + x_3_0 - 2 y_0_3_0 <= 0
 R7: x_0_1 + x_3_1 - 2 y_0_3_1 <= 0
 R8: x_0_0 + x_4_0 - 2 y_0_4_0 <= 0
 R9: x_0_1 + x_4_1 - 2 y_0_4_1 <= 0
 R10: x_0_0 + x_1_0 - 2 y_1_0_0 <= 0
 R11: x_0_1 + x_1_1 - 2 y_1_0_1 <= 0
 R12: 2 x_1_0 - 2 y_1_1_0 <= 0
 R13: 2 x_1_1 - 2 y_1_1_1 <= 0
 R14: x_1_0 + x_2_0 - 2 y_1_2_0 <= 0
 R15: x_1_1 + x_2_1 - 2 y_1_2_1 <= 0
 R16: x_1_0 + x_3_0 - 2 y_1_3_0 <= 0
 R17: x_1_1 + x_3_1 - 2 y_1_3_1 <= 0
 R18: x_1_0 + x_4_0 - 2 y_1_4_0 <= 0
 R19: x_1_1 + x_4_1 - 2 y_1_4_1 <= 0
 R20: x_0_0 + x_2_0 - 2 y_2_0_0 <= 0
 R21: x_0_1 + x_2_1 - 2 y_2_0_1 <= 0
 R22: x_1_0 + x_2_0 - 2 y_2_1_0 <= 0
 R23: x_1_1 + x_2_1 - 2 y_2_1_1 <= 0
 R24: 2 x_2_0 - 2 y_2_2_0 <= 0
 R25: 2 x_2_1 - 2 y_2_2_1 <= 0
 R26: x_2_0 + x_3_0 - 2 y_2_3_0 <= 0
 R27: x_2_1 + x_3_1 - 2 y_2_3_1 <= 0
 R28: x_2_0 + x_4_0 - 2 y_2_4_0 <= 0
 R29: x_2_1 + x_4_1 - 2 y_2_4_1 <= 0
 R30: x_0_0 + x_3_0 - 2 y_3_0_0 <= 0
 R31: x_0_1 + x_3_1 - 2 y_3_0_1 <= 0
 R32: x_1_0 + x_3_0 - 2 y_3_1_0 <= 0
 R33: x_1_1 + x_3_1 - 2 y_3_1_1 <= 0
 R34: x_2_0 + x_3_0 - 2 y_3_2_0 <= 0
 R35: x_2_1 + x_3_1 - 2 y_3_2_1 <= 0
 R36: 2 x_3_0 - 2 y_3_3_0 <= 0
 R37: 2 x_3_1 - 2 y_3_3_1 <= 0
 R38: x_3_0 + x_4_0 - 2 y_3_4_0 <= 0
 R39: x_3_1 + x_4_1 - 2 y_3_4_1 <= 0
 R40: x_0_0 + x_4_0 - 2 y_4_0_0 <= 0
 R41: x_0_1 + x_4_1 - 2 y_4_0_1 <= 0
 R42: x_1_0 + x_4_0 - 2 y_4_1_0 <= 0
 R43: x_1_1 + x_4_1 - 2 y_4_1_1 <= 0
 R44: x_2_0 + x_4_0 - 2 y_4_2_0 <= 0
 R45: x_2_1 + x_4_1 - 2 y_4_2_1 <= 0
 R46: x_3_0 + x_4_0 - 2 y_4_3_0 <= 0
 R47: x_3_1 + x_4_1 - 2 y_4_3_1 <= 0
 R48: 2 x_4_0 - 2 y_4_4_0 <= 0
 R49: 2 x_4_1 - 2 y_4_4_1 <= 0
 R50: 660741 x_0_0 + 50793 x_1_0 + 85643 x_2_0 + 170363 x_3_0
   + 129839 x_4_0 + slack >= 548689.5
 R51: 660741 x_0_1 + 50793 x_1_1 + 85643 x_2_1 + 170363 x_3_1
   + 129839 x_4_1 + slack >= 548689.5
 R52: x_0_0 + x_0_1 = 1
 R53: x_1_0 + x_1_1 = 1
 R54: x_2_0 + x_2_1 = 1
 R55: x_3_0 + x_3_1 = 1
 R56: x_4_0 + x_4_1 = 1
Bounds
Binaries
 x_0_0 x_0_1 x_1_0 x_1_1 x_2_0 x_2_1 x_3_0 x_3_1 x_4_0 x_4_1 y_0_0_0
 y_0_0_1 y_0_1_0 y_0_1_1 y_0_2_0 y_0_2_1 y_0_3_0 y_0_3_1 y_0_4_0 y_0_4_1
 y_1_0_0 y_1_0_1 y_1_1_0 y_1_1_1 y_1_2_0 y_1_2_1 y_1_3_0 y_1_3_1 y_1_4_0
 y_1_4_1 y_2_0_0 y_2_0_1 y_2_1_0 y_2_1_1 y_2_2_0 y_2_2_1 y_2_3_0 y_2_3_1
 y_2_4_0 y_2_4_1 y_3_0_0 y_3_0_1 y_3_1_0 y_3_1_1 y_3_2_0 y_3_2_1 y_3_3_0
 y_3_3_1 y_3_4_0 y_3_4_1 y_4_0_0 y_4_0_1 y_4_1_0 y_4_1_1 y_4_2_0 y_4_2_1
 y_4_3_0 y_4_3_1 y_4_4_0 y_4_4_1
End
